(set-info :smt-lib-version 2.6)
(set-logic QF_DT)
(set-info :source |
Generated by: Federico Mora
Generated on: 2023-07-20
Generator: z3 Python bindings via UCLID5 Python API
Application: Blocksworld Automated Reasoning Problems.
Target solvers: Algaroba, cvc5, Z3, Princess
Publications: Shah, Mora and Seshia. An Eager Satisfiability Modulo Theories Solver for Algebraic Datatypes. AAAI ’24 |)
(set-info :license "https://creativecommons.org/licenses/by/4.0/")
(set-info :category "industrial")
(set-info :status unsat) 
(declare-datatypes ((Enum_A_B_C_D_E_F_G_H_I_J_K_L_M_N_O_P 0)) (((A) (B) (C) (D) (E) (F) (G) (H) (I) (J) (K) (L) (M) (N) (O) (P))))
(declare-datatypes ((Tower 0)) (((stack (top Enum_A_B_C_D_E_F_G_H_I_J_K_L_M_N_O_P) (rest Tower)) (empty))))
(declare-datatypes ((Record_left_center_right 0)) (((Record_left_center_right (left Tower) (center Tower) (right Tower)))))
(declare-datatypes ((Enum_left-to-center_left-to-right_center-to-left_center-to-right_right-to-left_right-to-center 0)) (((left-to-center) (left-to-right) (center-to-left) (center-to-right) (right-to-left) (right-to-center))))
(declare-fun s () Record_left_center_right)
(declare-fun s_tmp () Record_left_center_right)
(declare-fun c () Enum_left-to-center_left-to-right_center-to-left_center-to-right_right-to-left_right-to-center)
(declare-fun c_tmp () Enum_left-to-center_left-to-right_center-to-left_center-to-right_right-to-left_right-to-center)
(declare-fun s_tmp_ () Record_left_center_right)
(declare-fun s_tmp__ () Record_left_center_right)
(declare-fun s_tmp___ () Record_left_center_right)
(declare-fun c!0 () Enum_left-to-center_left-to-right_center-to-left_center-to-right_right-to-left_right-to-center)
(declare-fun c_tmp____ () Enum_left-to-center_left-to-right_center-to-left_center-to-right_right-to-left_right-to-center)
(declare-fun s_ () Record_left_center_right)
(declare-fun c_ () Enum_left-to-center_left-to-right_center-to-left_center-to-right_right-to-left_right-to-center)
(declare-fun c!1 () Enum_left-to-center_left-to-right_center-to-left_center-to-right_right-to-left_right-to-center)
(declare-fun c__ () Enum_left-to-center_left-to-right_center-to-left_center-to-right_right-to-left_right-to-center)
(declare-fun s__ () Record_left_center_right)
(declare-fun c!2 () Enum_left-to-center_left-to-right_center-to-left_center-to-right_right-to-left_right-to-center)
(declare-fun c___ () Enum_left-to-center_left-to-right_center-to-left_center-to-right_right-to-left_right-to-center)
(declare-fun s___ () Record_left_center_right)
(declare-fun c!3 () Enum_left-to-center_left-to-right_center-to-left_center-to-right_right-to-left_right-to-center)
(declare-fun c____ () Enum_left-to-center_left-to-right_center-to-left_center-to-right_right-to-left_right-to-center)
(declare-fun s____ () Record_left_center_right)
(declare-fun c!4 () Enum_left-to-center_left-to-right_center-to-left_center-to-right_right-to-left_right-to-center)
(declare-fun c_____ () Enum_left-to-center_left-to-right_center-to-left_center-to-right_right-to-left_right-to-center)
(declare-fun s_____ () Record_left_center_right)
(declare-fun c!5 () Enum_left-to-center_left-to-right_center-to-left_center-to-right_right-to-left_right-to-center)
(declare-fun c______ () Enum_left-to-center_left-to-right_center-to-left_center-to-right_right-to-left_right-to-center)
(declare-fun s______ () Record_left_center_right)
(declare-fun c!6 () Enum_left-to-center_left-to-right_center-to-left_center-to-right_right-to-left_right-to-center)
(declare-fun c_______ () Enum_left-to-center_left-to-right_center-to-left_center-to-right_right-to-left_right-to-center)
(declare-fun s_______ () Record_left_center_right)
(declare-fun c!7 () Enum_left-to-center_left-to-right_center-to-left_center-to-right_right-to-left_right-to-center)
(declare-fun c________ () Enum_left-to-center_left-to-right_center-to-left_center-to-right_right-to-left_right-to-center)
(declare-fun s________ () Record_left_center_right)
(declare-fun c!8 () Enum_left-to-center_left-to-right_center-to-left_center-to-right_right-to-left_right-to-center)
(declare-fun c_________ () Enum_left-to-center_left-to-right_center-to-left_center-to-right_right-to-left_right-to-center)
(declare-fun s_________ () Record_left_center_right)
(declare-fun c!9 () Enum_left-to-center_left-to-right_center-to-left_center-to-right_right-to-left_right-to-center)
(declare-fun c__________ () Enum_left-to-center_left-to-right_center-to-left_center-to-right_right-to-left_right-to-center)
(declare-fun s__________ () Record_left_center_right)
(assert
 (= s_tmp s))
(assert
 (= c_tmp c))
(assert
 (let ((?x28 (stack P empty)))
 (let ((?x29 (stack L ?x28)))
 (let ((?x30 (stack N ?x29)))
 (let ((?x31 (stack F ?x30)))
 (let ((?x32 (stack D ?x31)))
 (let ((?x33 (stack I ?x32)))
 (let ((?x34 (stack C ?x33)))
 (let ((?x35 (stack K ?x34)))
 (let ((?x36 (stack G ?x35)))
 (let ((?x106 (left s_tmp_)))
 (= ?x106 ?x36))))))))))))
(assert
 (let ((?x37 (stack M empty)))
 (let ((?x38 (stack O ?x37)))
 (let ((?x39 (stack E ?x38)))
 (let ((?x40 (stack B ?x39)))
 (let ((?x41 (stack H ?x40)))
 (let ((?x42 (stack J ?x41)))
 (let ((?x43 (stack A ?x42)))
 (let ((?x109 (center s_tmp__)))
 (= ?x109 ?x43))))))))))
(assert
 (let ((?x112 (right s_tmp___)))
 (= ?x112 empty)))
(assert
 (= c_tmp____ c!0))
(assert
 (= s_ s_tmp___))
(assert
 (= c_ c_tmp____))
(assert
 (let ((?x139 (left s_tmp__)))
 (= (left s_tmp___) ?x139)))
(assert
 (let ((?x109 (center s_tmp__)))
 (= (center s_tmp___) ?x109)))
(assert
 (let ((?x143 (center s_tmp_)))
 (= ?x143 (center s_tmp))))
(assert
 (let ((?x146 (right s_tmp_)))
 (= ?x146 (right s_tmp))))
(assert
 (let ((?x106 (left s_tmp_)))
 (let ((?x139 (left s_tmp__)))
 (= ?x139 ?x106))))
(assert
 (let ((?x146 (right s_tmp_)))
 (let ((?x150 (right s_tmp__)))
 (= ?x150 ?x146))))
(assert
 (= c__ c!1))
(assert
 (let ((?x83 (left s_)))
 (let ((?x263 (left s__)))
 (let (($x287 (= ?x263 ?x83)))
 (let ((?x86 (right s_)))
 (let (($x284 ((_ is stack ) ?x86)))
 (let (($x276 (and (= c_ right-to-left) $x284)))
 (let ((?x88 (center s_)))
 (let (($x277 ((_ is stack ) ?x88)))
 (let (($x278 (= c_ center-to-right)))
 (let (($x279 (and $x278 $x277)))
 (let (($x280 (= c_ center-to-left)))
 (let (($x281 (and $x280 $x277)))
 (let (($x296 (ite $x281 (= ?x263 (stack (top ?x88) ?x83)) (ite $x279 $x287 (ite $x276 (= ?x263 (stack (top ?x86) ?x83)) $x287)))))
 (let (($x253 (= ?x263 (rest ?x83))))
 (let (($x255 ((_ is stack ) ?x83)))
 (let (($x256 (= c_ left-to-right)))
 (let (($x257 (and $x256 $x255)))
 (let (($x264 (= c_ left-to-center)))
 (let (($x265 (and $x264 $x255)))
 (ite $x265 $x253 (ite $x257 $x253 $x296))))))))))))))))))))))
(assert
 (let ((?x86 (right s_)))
 (let ((?x271 (right s__)))
 (let (($x241 (= ?x271 ?x86)))
 (let (($x247 (= ?x271 (rest ?x86))))
 (let (($x284 ((_ is stack ) ?x86)))
 (let (($x244 (and (= c_ right-to-center) $x284)))
 (let (($x276 (and (= c_ right-to-left) $x284)))
 (let ((?x88 (center s_)))
 (let (($x277 ((_ is stack ) ?x88)))
 (let (($x278 (= c_ center-to-right)))
 (let (($x279 (and $x278 $x277)))
 (let (($x293 (ite $x279 (= ?x271 (stack (top ?x88) ?x86)) (ite $x276 $x247 (ite $x244 $x247 $x241)))))
 (let (($x280 (= c_ center-to-left)))
 (let (($x281 (and $x280 $x277)))
 (let ((?x83 (left s_)))
 (let (($x255 ((_ is stack ) ?x83)))
 (let (($x256 (= c_ left-to-right)))
 (let (($x257 (and $x256 $x255)))
 (let (($x264 (= c_ left-to-center)))
 (let (($x265 (and $x264 $x255)))
 (ite $x265 (= ?x271 (stack (top ?x83) ?x86)) (ite $x257 $x241 (ite $x281 $x241 $x293))))))))))))))))))))))))
(assert
 (let ((?x88 (center s_)))
 (let ((?x259 (center s__)))
 (let (($x285 (= ?x259 ?x88)))
 (let ((?x86 (right s_)))
 (let (($x284 ((_ is stack ) ?x86)))
 (let (($x244 (and (= c_ right-to-center) $x284)))
 (let (($x276 (and (= c_ right-to-left) $x284)))
 (let (($x250 (= ?x259 (rest ?x88))))
 (let (($x277 ((_ is stack ) ?x88)))
 (let (($x278 (= c_ center-to-right)))
 (let (($x279 (and $x278 $x277)))
 (let (($x292 (ite $x279 $x250 (ite $x276 $x285 (ite $x244 (= ?x259 (stack (top ?x86) ?x88)) $x285)))))
 (let (($x280 (= c_ center-to-left)))
 (let (($x281 (and $x280 $x277)))
 (let ((?x83 (left s_)))
 (let (($x255 ((_ is stack ) ?x83)))
 (let (($x256 (= c_ left-to-right)))
 (let (($x257 (and $x256 $x255)))
 (let (($x264 (= c_ left-to-center)))
 (let (($x265 (and $x264 $x255)))
 (ite $x265 $x285 (ite $x257 (= ?x259 (stack (top ?x83) ?x88)) (ite $x281 $x250 $x292))))))))))))))))))))))))
(assert
 (= c___ c!2))
(assert
 (let ((?x263 (left s__)))
 (let ((?x153 (left s___)))
 (let (($x398 (= ?x153 ?x263)))
 (let ((?x271 (right s__)))
 (let ((?x365 (top ?x271)))
 (let ((?x366 (stack ?x365 ?x263)))
 (let (($x392 (= ?x153 ?x366)))
 (let (($x368 ((_ is stack ) ?x271)))
 (let (($x371 (= c__ right-to-left)))
 (let (($x372 (and $x371 $x368)))
 (let ((?x259 (center s__)))
 (let (($x373 ((_ is stack ) ?x259)))
 (let (($x374 (= c__ center-to-right)))
 (let (($x375 (and $x374 $x373)))
 (let ((?x361 (top ?x259)))
 (let ((?x362 (stack ?x361 ?x263)))
 (let (($x389 (= ?x153 ?x362)))
 (let (($x376 (= c__ center-to-left)))
 (let (($x377 (and $x376 $x373)))
 (let ((?x155 (rest ?x263)))
 (let (($x385 (= ?x153 ?x155)))
 (let (($x378 ((_ is stack ) ?x263)))
 (let (($x379 (= c__ left-to-right)))
 (let (($x380 (and $x379 $x378)))
 (let (($x381 (= c__ left-to-center)))
 (let (($x382 (and $x381 $x378)))
 (ite $x382 $x385 (ite $x380 $x385 (ite $x377 $x389 (ite $x375 $x398 (ite $x372 $x392 $x398))))))))))))))))))))))))))))))))
(assert
 (let ((?x271 (right s__)))
 (let ((?x156 (right s___)))
 (let (($x394 (= ?x156 ?x271)))
 (let ((?x364 (rest ?x271)))
 (let (($x391 (= ?x156 ?x364)))
 (let (($x368 ((_ is stack ) ?x271)))
 (let (($x369 (= c__ right-to-center)))
 (let (($x370 (and $x369 $x368)))
 (let (($x371 (= c__ right-to-left)))
 (let (($x372 (and $x371 $x368)))
 (let ((?x259 (center s__)))
 (let ((?x361 (top ?x259)))
 (let ((?x363 (stack ?x361 ?x271)))
 (let (($x390 (= ?x156 ?x363)))
 (let (($x373 ((_ is stack ) ?x259)))
 (let (($x374 (= c__ center-to-right)))
 (let (($x375 (and $x374 $x373)))
 (let (($x376 (= c__ center-to-left)))
 (let (($x377 (and $x376 $x373)))
 (let ((?x263 (left s__)))
 (let (($x378 ((_ is stack ) ?x263)))
 (let (($x379 (= c__ left-to-right)))
 (let (($x380 (and $x379 $x378)))
 (let (($x411 (ite $x380 $x394 (ite $x377 $x394 (ite $x375 $x390 (ite $x372 $x391 (ite $x370 $x391 $x394)))))))
 (let ((?x239 (top ?x263)))
 (let ((?x357 (stack ?x239 ?x271)))
 (let (($x386 (= ?x156 ?x357)))
 (let (($x381 (= c__ left-to-center)))
 (let (($x382 (and $x381 $x378)))
 (ite $x382 $x386 $x411)))))))))))))))))))))))))))))))
(assert
 (let ((?x259 (center s__)))
 (let ((?x358 (center s___)))
 (let (($x396 (= ?x358 ?x259)))
 (let ((?x271 (right s__)))
 (let ((?x365 (top ?x271)))
 (let ((?x367 (stack ?x365 ?x259)))
 (let (($x393 (= ?x358 ?x367)))
 (let (($x368 ((_ is stack ) ?x271)))
 (let (($x369 (= c__ right-to-center)))
 (let (($x370 (and $x369 $x368)))
 (let (($x371 (= c__ right-to-left)))
 (let (($x372 (and $x371 $x368)))
 (let ((?x360 (rest ?x259)))
 (let (($x388 (= ?x358 ?x360)))
 (let (($x373 ((_ is stack ) ?x259)))
 (let (($x374 (= c__ center-to-right)))
 (let (($x375 (and $x374 $x373)))
 (let (($x376 (= c__ center-to-left)))
 (let (($x377 (and $x376 $x373)))
 (let ((?x263 (left s__)))
 (let ((?x239 (top ?x263)))
 (let ((?x359 (stack ?x239 ?x259)))
 (let (($x387 (= ?x358 ?x359)))
 (let (($x378 ((_ is stack ) ?x263)))
 (let (($x379 (= c__ left-to-right)))
 (let (($x380 (and $x379 $x378)))
 (let (($x410 (ite $x380 $x387 (ite $x377 $x388 (ite $x375 $x388 (ite $x372 $x396 (ite $x370 $x393 $x396)))))))
 (let (($x381 (= c__ left-to-center)))
 (let (($x382 (and $x381 $x378)))
 (ite $x382 $x396 $x410)))))))))))))))))))))))))))))))
(assert
 (= c____ c!3))
(assert
 (let ((?x153 (left s___)))
 (let ((?x303 (left s____)))
 (let (($x536 (= ?x303 ?x153)))
 (let ((?x156 (right s___)))
 (let ((?x503 (top ?x156)))
 (let ((?x504 (stack ?x503 ?x153)))
 (let (($x530 (= ?x303 ?x504)))
 (let (($x506 ((_ is stack ) ?x156)))
 (let (($x509 (= c___ right-to-left)))
 (let (($x510 (and $x509 $x506)))
 (let ((?x358 (center s___)))
 (let (($x511 ((_ is stack ) ?x358)))
 (let (($x512 (= c___ center-to-right)))
 (let (($x513 (and $x512 $x511)))
 (let ((?x499 (top ?x358)))
 (let ((?x500 (stack ?x499 ?x153)))
 (let (($x527 (= ?x303 ?x500)))
 (let (($x514 (= c___ center-to-left)))
 (let (($x515 (and $x514 $x511)))
 (let ((?x334 (rest ?x153)))
 (let (($x523 (= ?x303 ?x334)))
 (let (($x516 ((_ is stack ) ?x153)))
 (let (($x517 (= c___ left-to-right)))
 (let (($x518 (and $x517 $x516)))
 (let (($x519 (= c___ left-to-center)))
 (let (($x520 (and $x519 $x516)))
 (ite $x520 $x523 (ite $x518 $x523 (ite $x515 $x527 (ite $x513 $x536 (ite $x510 $x530 $x536))))))))))))))))))))))))))))))))
(assert
 (let ((?x156 (right s___)))
 (let ((?x335 (right s____)))
 (let (($x532 (= ?x335 ?x156)))
 (let ((?x502 (rest ?x156)))
 (let (($x529 (= ?x335 ?x502)))
 (let (($x506 ((_ is stack ) ?x156)))
 (let (($x507 (= c___ right-to-center)))
 (let (($x508 (and $x507 $x506)))
 (let (($x509 (= c___ right-to-left)))
 (let (($x510 (and $x509 $x506)))
 (let ((?x358 (center s___)))
 (let ((?x499 (top ?x358)))
 (let ((?x501 (stack ?x499 ?x156)))
 (let (($x528 (= ?x335 ?x501)))
 (let (($x511 ((_ is stack ) ?x358)))
 (let (($x512 (= c___ center-to-right)))
 (let (($x513 (and $x512 $x511)))
 (let (($x514 (= c___ center-to-left)))
 (let (($x515 (and $x514 $x511)))
 (let ((?x153 (left s___)))
 (let (($x516 ((_ is stack ) ?x153)))
 (let (($x517 (= c___ left-to-right)))
 (let (($x518 (and $x517 $x516)))
 (let (($x549 (ite $x518 $x532 (ite $x515 $x532 (ite $x513 $x528 (ite $x510 $x529 (ite $x508 $x529 $x532)))))))
 (let ((?x356 (top ?x153)))
 (let ((?x495 (stack ?x356 ?x156)))
 (let (($x524 (= ?x335 ?x495)))
 (let (($x519 (= c___ left-to-center)))
 (let (($x520 (and $x519 $x516)))
 (ite $x520 $x524 $x549)))))))))))))))))))))))))))))))
(assert
 (let ((?x358 (center s___)))
 (let ((?x496 (center s____)))
 (let (($x534 (= ?x496 ?x358)))
 (let ((?x156 (right s___)))
 (let ((?x503 (top ?x156)))
 (let ((?x505 (stack ?x503 ?x358)))
 (let (($x531 (= ?x496 ?x505)))
 (let (($x506 ((_ is stack ) ?x156)))
 (let (($x507 (= c___ right-to-center)))
 (let (($x508 (and $x507 $x506)))
 (let (($x509 (= c___ right-to-left)))
 (let (($x510 (and $x509 $x506)))
 (let ((?x498 (rest ?x358)))
 (let (($x526 (= ?x496 ?x498)))
 (let (($x511 ((_ is stack ) ?x358)))
 (let (($x512 (= c___ center-to-right)))
 (let (($x513 (and $x512 $x511)))
 (let (($x514 (= c___ center-to-left)))
 (let (($x515 (and $x514 $x511)))
 (let ((?x153 (left s___)))
 (let ((?x356 (top ?x153)))
 (let ((?x497 (stack ?x356 ?x358)))
 (let (($x525 (= ?x496 ?x497)))
 (let (($x516 ((_ is stack ) ?x153)))
 (let (($x517 (= c___ left-to-right)))
 (let (($x518 (and $x517 $x516)))
 (let (($x548 (ite $x518 $x525 (ite $x515 $x526 (ite $x513 $x526 (ite $x510 $x534 (ite $x508 $x531 $x534)))))))
 (let (($x519 (= c___ left-to-center)))
 (let (($x520 (and $x519 $x516)))
 (ite $x520 $x534 $x548)))))))))))))))))))))))))))))))
(assert
 (= c_____ c!4))
(assert
 (let ((?x303 (left s____)))
 (let ((?x414 (left s_____)))
 (let (($x674 (= ?x414 ?x303)))
 (let ((?x335 (right s____)))
 (let ((?x641 (top ?x335)))
 (let ((?x642 (stack ?x641 ?x303)))
 (let (($x668 (= ?x414 ?x642)))
 (let (($x644 ((_ is stack ) ?x335)))
 (let (($x647 (= c____ right-to-left)))
 (let (($x648 (and $x647 $x644)))
 (let ((?x496 (center s____)))
 (let (($x649 ((_ is stack ) ?x496)))
 (let (($x650 (= c____ center-to-right)))
 (let (($x651 (and $x650 $x649)))
 (let ((?x637 (top ?x496)))
 (let ((?x638 (stack ?x637 ?x303)))
 (let (($x665 (= ?x414 ?x638)))
 (let (($x652 (= c____ center-to-left)))
 (let (($x653 (and $x652 $x649)))
 (let ((?x447 (rest ?x303)))
 (let (($x661 (= ?x414 ?x447)))
 (let (($x654 ((_ is stack ) ?x303)))
 (let (($x655 (= c____ left-to-right)))
 (let (($x656 (and $x655 $x654)))
 (let (($x657 (= c____ left-to-center)))
 (let (($x658 (and $x657 $x654)))
 (ite $x658 $x661 (ite $x656 $x661 (ite $x653 $x665 (ite $x651 $x674 (ite $x648 $x668 $x674))))))))))))))))))))))))))))))))
(assert
 (let ((?x335 (right s____)))
 (let ((?x448 (right s_____)))
 (let (($x670 (= ?x448 ?x335)))
 (let ((?x640 (rest ?x335)))
 (let (($x667 (= ?x448 ?x640)))
 (let (($x644 ((_ is stack ) ?x335)))
 (let (($x645 (= c____ right-to-center)))
 (let (($x646 (and $x645 $x644)))
 (let (($x647 (= c____ right-to-left)))
 (let (($x648 (and $x647 $x644)))
 (let ((?x496 (center s____)))
 (let ((?x637 (top ?x496)))
 (let ((?x639 (stack ?x637 ?x335)))
 (let (($x666 (= ?x448 ?x639)))
 (let (($x649 ((_ is stack ) ?x496)))
 (let (($x650 (= c____ center-to-right)))
 (let (($x651 (and $x650 $x649)))
 (let (($x652 (= c____ center-to-left)))
 (let (($x653 (and $x652 $x649)))
 (let ((?x303 (left s____)))
 (let (($x654 ((_ is stack ) ?x303)))
 (let (($x655 (= c____ left-to-right)))
 (let (($x656 (and $x655 $x654)))
 (let (($x687 (ite $x656 $x670 (ite $x653 $x670 (ite $x651 $x666 (ite $x648 $x667 (ite $x646 $x667 $x670)))))))
 (let ((?x494 (top ?x303)))
 (let ((?x633 (stack ?x494 ?x335)))
 (let (($x662 (= ?x448 ?x633)))
 (let (($x657 (= c____ left-to-center)))
 (let (($x658 (and $x657 $x654)))
 (ite $x658 $x662 $x687)))))))))))))))))))))))))))))))
(assert
 (let ((?x496 (center s____)))
 (let ((?x634 (center s_____)))
 (let (($x672 (= ?x634 ?x496)))
 (let ((?x335 (right s____)))
 (let ((?x641 (top ?x335)))
 (let ((?x643 (stack ?x641 ?x496)))
 (let (($x669 (= ?x634 ?x643)))
 (let (($x644 ((_ is stack ) ?x335)))
 (let (($x645 (= c____ right-to-center)))
 (let (($x646 (and $x645 $x644)))
 (let (($x647 (= c____ right-to-left)))
 (let (($x648 (and $x647 $x644)))
 (let ((?x636 (rest ?x496)))
 (let (($x664 (= ?x634 ?x636)))
 (let (($x649 ((_ is stack ) ?x496)))
 (let (($x650 (= c____ center-to-right)))
 (let (($x651 (and $x650 $x649)))
 (let (($x652 (= c____ center-to-left)))
 (let (($x653 (and $x652 $x649)))
 (let ((?x303 (left s____)))
 (let ((?x494 (top ?x303)))
 (let ((?x635 (stack ?x494 ?x496)))
 (let (($x663 (= ?x634 ?x635)))
 (let (($x654 ((_ is stack ) ?x303)))
 (let (($x655 (= c____ left-to-right)))
 (let (($x656 (and $x655 $x654)))
 (let (($x686 (ite $x656 $x663 (ite $x653 $x664 (ite $x651 $x664 (ite $x648 $x672 (ite $x646 $x669 $x672)))))))
 (let (($x657 (= c____ left-to-center)))
 (let (($x658 (and $x657 $x654)))
 (ite $x658 $x672 $x686)))))))))))))))))))))))))))))))
(assert
 (= c______ c!5))
(assert
 (let ((?x414 (left s_____)))
 (let ((?x552 (left s______)))
 (let (($x812 (= ?x552 ?x414)))
 (let ((?x448 (right s_____)))
 (let ((?x779 (top ?x448)))
 (let ((?x780 (stack ?x779 ?x414)))
 (let (($x806 (= ?x552 ?x780)))
 (let (($x782 ((_ is stack ) ?x448)))
 (let (($x785 (= c_____ right-to-left)))
 (let (($x786 (and $x785 $x782)))
 (let ((?x634 (center s_____)))
 (let (($x787 ((_ is stack ) ?x634)))
 (let (($x788 (= c_____ center-to-right)))
 (let (($x789 (and $x788 $x787)))
 (let ((?x775 (top ?x634)))
 (let ((?x776 (stack ?x775 ?x414)))
 (let (($x803 (= ?x552 ?x776)))
 (let (($x790 (= c_____ center-to-left)))
 (let (($x791 (and $x790 $x787)))
 (let ((?x585 (rest ?x414)))
 (let (($x799 (= ?x552 ?x585)))
 (let (($x792 ((_ is stack ) ?x414)))
 (let (($x793 (= c_____ left-to-right)))
 (let (($x794 (and $x793 $x792)))
 (let (($x795 (= c_____ left-to-center)))
 (let (($x796 (and $x795 $x792)))
 (ite $x796 $x799 (ite $x794 $x799 (ite $x791 $x803 (ite $x789 $x812 (ite $x786 $x806 $x812))))))))))))))))))))))))))))))))
(assert
 (let ((?x448 (right s_____)))
 (let ((?x586 (right s______)))
 (let (($x808 (= ?x586 ?x448)))
 (let ((?x778 (rest ?x448)))
 (let (($x805 (= ?x586 ?x778)))
 (let (($x782 ((_ is stack ) ?x448)))
 (let (($x783 (= c_____ right-to-center)))
 (let (($x784 (and $x783 $x782)))
 (let (($x785 (= c_____ right-to-left)))
 (let (($x786 (and $x785 $x782)))
 (let ((?x634 (center s_____)))
 (let ((?x775 (top ?x634)))
 (let ((?x777 (stack ?x775 ?x448)))
 (let (($x804 (= ?x586 ?x777)))
 (let (($x787 ((_ is stack ) ?x634)))
 (let (($x788 (= c_____ center-to-right)))
 (let (($x789 (and $x788 $x787)))
 (let (($x790 (= c_____ center-to-left)))
 (let (($x791 (and $x790 $x787)))
 (let ((?x414 (left s_____)))
 (let (($x792 ((_ is stack ) ?x414)))
 (let (($x793 (= c_____ left-to-right)))
 (let (($x794 (and $x793 $x792)))
 (let (($x825 (ite $x794 $x808 (ite $x791 $x808 (ite $x789 $x804 (ite $x786 $x805 (ite $x784 $x805 $x808)))))))
 (let ((?x632 (top ?x414)))
 (let ((?x771 (stack ?x632 ?x448)))
 (let (($x800 (= ?x586 ?x771)))
 (let (($x795 (= c_____ left-to-center)))
 (let (($x796 (and $x795 $x792)))
 (ite $x796 $x800 $x825)))))))))))))))))))))))))))))))
(assert
 (let ((?x634 (center s_____)))
 (let ((?x772 (center s______)))
 (let (($x810 (= ?x772 ?x634)))
 (let ((?x448 (right s_____)))
 (let ((?x779 (top ?x448)))
 (let ((?x781 (stack ?x779 ?x634)))
 (let (($x807 (= ?x772 ?x781)))
 (let (($x782 ((_ is stack ) ?x448)))
 (let (($x783 (= c_____ right-to-center)))
 (let (($x784 (and $x783 $x782)))
 (let (($x785 (= c_____ right-to-left)))
 (let (($x786 (and $x785 $x782)))
 (let ((?x774 (rest ?x634)))
 (let (($x802 (= ?x772 ?x774)))
 (let (($x787 ((_ is stack ) ?x634)))
 (let (($x788 (= c_____ center-to-right)))
 (let (($x789 (and $x788 $x787)))
 (let (($x790 (= c_____ center-to-left)))
 (let (($x791 (and $x790 $x787)))
 (let ((?x414 (left s_____)))
 (let ((?x632 (top ?x414)))
 (let ((?x773 (stack ?x632 ?x634)))
 (let (($x801 (= ?x772 ?x773)))
 (let (($x792 ((_ is stack ) ?x414)))
 (let (($x793 (= c_____ left-to-right)))
 (let (($x794 (and $x793 $x792)))
 (let (($x824 (ite $x794 $x801 (ite $x791 $x802 (ite $x789 $x802 (ite $x786 $x810 (ite $x784 $x807 $x810)))))))
 (let (($x795 (= c_____ left-to-center)))
 (let (($x796 (and $x795 $x792)))
 (ite $x796 $x810 $x824)))))))))))))))))))))))))))))))
(assert
 (= c_______ c!6))
(assert
 (let ((?x552 (left s______)))
 (let ((?x690 (left s_______)))
 (let (($x950 (= ?x690 ?x552)))
 (let ((?x586 (right s______)))
 (let ((?x917 (top ?x586)))
 (let ((?x918 (stack ?x917 ?x552)))
 (let (($x944 (= ?x690 ?x918)))
 (let (($x920 ((_ is stack ) ?x586)))
 (let (($x923 (= c______ right-to-left)))
 (let (($x924 (and $x923 $x920)))
 (let ((?x772 (center s______)))
 (let (($x925 ((_ is stack ) ?x772)))
 (let (($x926 (= c______ center-to-right)))
 (let (($x927 (and $x926 $x925)))
 (let ((?x913 (top ?x772)))
 (let ((?x914 (stack ?x913 ?x552)))
 (let (($x941 (= ?x690 ?x914)))
 (let (($x928 (= c______ center-to-left)))
 (let (($x929 (and $x928 $x925)))
 (let ((?x723 (rest ?x552)))
 (let (($x937 (= ?x690 ?x723)))
 (let (($x930 ((_ is stack ) ?x552)))
 (let (($x931 (= c______ left-to-right)))
 (let (($x932 (and $x931 $x930)))
 (let (($x933 (= c______ left-to-center)))
 (let (($x934 (and $x933 $x930)))
 (ite $x934 $x937 (ite $x932 $x937 (ite $x929 $x941 (ite $x927 $x950 (ite $x924 $x944 $x950))))))))))))))))))))))))))))))))
(assert
 (let ((?x586 (right s______)))
 (let ((?x724 (right s_______)))
 (let (($x946 (= ?x724 ?x586)))
 (let ((?x916 (rest ?x586)))
 (let (($x943 (= ?x724 ?x916)))
 (let (($x920 ((_ is stack ) ?x586)))
 (let (($x921 (= c______ right-to-center)))
 (let (($x922 (and $x921 $x920)))
 (let (($x923 (= c______ right-to-left)))
 (let (($x924 (and $x923 $x920)))
 (let ((?x772 (center s______)))
 (let ((?x913 (top ?x772)))
 (let ((?x915 (stack ?x913 ?x586)))
 (let (($x942 (= ?x724 ?x915)))
 (let (($x925 ((_ is stack ) ?x772)))
 (let (($x926 (= c______ center-to-right)))
 (let (($x927 (and $x926 $x925)))
 (let (($x928 (= c______ center-to-left)))
 (let (($x929 (and $x928 $x925)))
 (let ((?x552 (left s______)))
 (let (($x930 ((_ is stack ) ?x552)))
 (let (($x931 (= c______ left-to-right)))
 (let (($x932 (and $x931 $x930)))
 (let (($x963 (ite $x932 $x946 (ite $x929 $x946 (ite $x927 $x942 (ite $x924 $x943 (ite $x922 $x943 $x946)))))))
 (let ((?x770 (top ?x552)))
 (let ((?x909 (stack ?x770 ?x586)))
 (let (($x938 (= ?x724 ?x909)))
 (let (($x933 (= c______ left-to-center)))
 (let (($x934 (and $x933 $x930)))
 (ite $x934 $x938 $x963)))))))))))))))))))))))))))))))
(assert
 (let ((?x772 (center s______)))
 (let ((?x910 (center s_______)))
 (let (($x948 (= ?x910 ?x772)))
 (let ((?x586 (right s______)))
 (let ((?x917 (top ?x586)))
 (let ((?x919 (stack ?x917 ?x772)))
 (let (($x945 (= ?x910 ?x919)))
 (let (($x920 ((_ is stack ) ?x586)))
 (let (($x921 (= c______ right-to-center)))
 (let (($x922 (and $x921 $x920)))
 (let (($x923 (= c______ right-to-left)))
 (let (($x924 (and $x923 $x920)))
 (let ((?x912 (rest ?x772)))
 (let (($x940 (= ?x910 ?x912)))
 (let (($x925 ((_ is stack ) ?x772)))
 (let (($x926 (= c______ center-to-right)))
 (let (($x927 (and $x926 $x925)))
 (let (($x928 (= c______ center-to-left)))
 (let (($x929 (and $x928 $x925)))
 (let ((?x552 (left s______)))
 (let ((?x770 (top ?x552)))
 (let ((?x911 (stack ?x770 ?x772)))
 (let (($x939 (= ?x910 ?x911)))
 (let (($x930 ((_ is stack ) ?x552)))
 (let (($x931 (= c______ left-to-right)))
 (let (($x932 (and $x931 $x930)))
 (let (($x962 (ite $x932 $x939 (ite $x929 $x940 (ite $x927 $x940 (ite $x924 $x948 (ite $x922 $x945 $x948)))))))
 (let (($x933 (= c______ left-to-center)))
 (let (($x934 (and $x933 $x930)))
 (ite $x934 $x948 $x962)))))))))))))))))))))))))))))))
(assert
 (= c________ c!7))
(assert
 (let ((?x690 (left s_______)))
 (let ((?x828 (left s________)))
 (let (($x1088 (= ?x828 ?x690)))
 (let ((?x724 (right s_______)))
 (let ((?x1055 (top ?x724)))
 (let ((?x1056 (stack ?x1055 ?x690)))
 (let (($x1082 (= ?x828 ?x1056)))
 (let (($x1058 ((_ is stack ) ?x724)))
 (let (($x1061 (= c_______ right-to-left)))
 (let (($x1062 (and $x1061 $x1058)))
 (let ((?x910 (center s_______)))
 (let (($x1063 ((_ is stack ) ?x910)))
 (let (($x1064 (= c_______ center-to-right)))
 (let (($x1065 (and $x1064 $x1063)))
 (let ((?x1051 (top ?x910)))
 (let ((?x1052 (stack ?x1051 ?x690)))
 (let (($x1079 (= ?x828 ?x1052)))
 (let (($x1066 (= c_______ center-to-left)))
 (let (($x1067 (and $x1066 $x1063)))
 (let ((?x861 (rest ?x690)))
 (let (($x1075 (= ?x828 ?x861)))
 (let (($x1068 ((_ is stack ) ?x690)))
 (let (($x1069 (= c_______ left-to-right)))
 (let (($x1070 (and $x1069 $x1068)))
 (let (($x1071 (= c_______ left-to-center)))
 (let (($x1072 (and $x1071 $x1068)))
 (ite $x1072 $x1075 (ite $x1070 $x1075 (ite $x1067 $x1079 (ite $x1065 $x1088 (ite $x1062 $x1082 $x1088))))))))))))))))))))))))))))))))
(assert
 (let ((?x724 (right s_______)))
 (let ((?x862 (right s________)))
 (let (($x1084 (= ?x862 ?x724)))
 (let ((?x1054 (rest ?x724)))
 (let (($x1081 (= ?x862 ?x1054)))
 (let (($x1058 ((_ is stack ) ?x724)))
 (let (($x1059 (= c_______ right-to-center)))
 (let (($x1060 (and $x1059 $x1058)))
 (let (($x1061 (= c_______ right-to-left)))
 (let (($x1062 (and $x1061 $x1058)))
 (let ((?x910 (center s_______)))
 (let ((?x1051 (top ?x910)))
 (let ((?x1053 (stack ?x1051 ?x724)))
 (let (($x1080 (= ?x862 ?x1053)))
 (let (($x1063 ((_ is stack ) ?x910)))
 (let (($x1064 (= c_______ center-to-right)))
 (let (($x1065 (and $x1064 $x1063)))
 (let (($x1066 (= c_______ center-to-left)))
 (let (($x1067 (and $x1066 $x1063)))
 (let ((?x690 (left s_______)))
 (let (($x1068 ((_ is stack ) ?x690)))
 (let (($x1069 (= c_______ left-to-right)))
 (let (($x1070 (and $x1069 $x1068)))
 (let (($x1101 (ite $x1070 $x1084 (ite $x1067 $x1084 (ite $x1065 $x1080 (ite $x1062 $x1081 (ite $x1060 $x1081 $x1084)))))))
 (let ((?x908 (top ?x690)))
 (let ((?x1047 (stack ?x908 ?x724)))
 (let (($x1076 (= ?x862 ?x1047)))
 (let (($x1071 (= c_______ left-to-center)))
 (let (($x1072 (and $x1071 $x1068)))
 (ite $x1072 $x1076 $x1101)))))))))))))))))))))))))))))))
(assert
 (let ((?x910 (center s_______)))
 (let ((?x1048 (center s________)))
 (let (($x1086 (= ?x1048 ?x910)))
 (let ((?x724 (right s_______)))
 (let ((?x1055 (top ?x724)))
 (let ((?x1057 (stack ?x1055 ?x910)))
 (let (($x1083 (= ?x1048 ?x1057)))
 (let (($x1058 ((_ is stack ) ?x724)))
 (let (($x1059 (= c_______ right-to-center)))
 (let (($x1060 (and $x1059 $x1058)))
 (let (($x1061 (= c_______ right-to-left)))
 (let (($x1062 (and $x1061 $x1058)))
 (let ((?x1050 (rest ?x910)))
 (let (($x1078 (= ?x1048 ?x1050)))
 (let (($x1063 ((_ is stack ) ?x910)))
 (let (($x1064 (= c_______ center-to-right)))
 (let (($x1065 (and $x1064 $x1063)))
 (let (($x1066 (= c_______ center-to-left)))
 (let (($x1067 (and $x1066 $x1063)))
 (let ((?x690 (left s_______)))
 (let ((?x908 (top ?x690)))
 (let ((?x1049 (stack ?x908 ?x910)))
 (let (($x1077 (= ?x1048 ?x1049)))
 (let (($x1068 ((_ is stack ) ?x690)))
 (let (($x1069 (= c_______ left-to-right)))
 (let (($x1070 (and $x1069 $x1068)))
 (let (($x1100 (ite $x1070 $x1077 (ite $x1067 $x1078 (ite $x1065 $x1078 (ite $x1062 $x1086 (ite $x1060 $x1083 $x1086)))))))
 (let (($x1071 (= c_______ left-to-center)))
 (let (($x1072 (and $x1071 $x1068)))
 (ite $x1072 $x1086 $x1100)))))))))))))))))))))))))))))))
(assert
 (= c_________ c!8))
(assert
 (let ((?x828 (left s________)))
 (let ((?x966 (left s_________)))
 (let (($x1226 (= ?x966 ?x828)))
 (let ((?x862 (right s________)))
 (let ((?x1193 (top ?x862)))
 (let ((?x1194 (stack ?x1193 ?x828)))
 (let (($x1220 (= ?x966 ?x1194)))
 (let (($x1196 ((_ is stack ) ?x862)))
 (let (($x1199 (= c________ right-to-left)))
 (let (($x1200 (and $x1199 $x1196)))
 (let ((?x1048 (center s________)))
 (let (($x1201 ((_ is stack ) ?x1048)))
 (let (($x1202 (= c________ center-to-right)))
 (let (($x1203 (and $x1202 $x1201)))
 (let ((?x1189 (top ?x1048)))
 (let ((?x1190 (stack ?x1189 ?x828)))
 (let (($x1217 (= ?x966 ?x1190)))
 (let (($x1204 (= c________ center-to-left)))
 (let (($x1205 (and $x1204 $x1201)))
 (let ((?x999 (rest ?x828)))
 (let (($x1213 (= ?x966 ?x999)))
 (let (($x1206 ((_ is stack ) ?x828)))
 (let (($x1207 (= c________ left-to-right)))
 (let (($x1208 (and $x1207 $x1206)))
 (let (($x1209 (= c________ left-to-center)))
 (let (($x1210 (and $x1209 $x1206)))
 (ite $x1210 $x1213 (ite $x1208 $x1213 (ite $x1205 $x1217 (ite $x1203 $x1226 (ite $x1200 $x1220 $x1226))))))))))))))))))))))))))))))))
(assert
 (let ((?x862 (right s________)))
 (let ((?x1000 (right s_________)))
 (let (($x1222 (= ?x1000 ?x862)))
 (let ((?x1192 (rest ?x862)))
 (let (($x1219 (= ?x1000 ?x1192)))
 (let (($x1196 ((_ is stack ) ?x862)))
 (let (($x1197 (= c________ right-to-center)))
 (let (($x1198 (and $x1197 $x1196)))
 (let (($x1199 (= c________ right-to-left)))
 (let (($x1200 (and $x1199 $x1196)))
 (let ((?x1048 (center s________)))
 (let ((?x1189 (top ?x1048)))
 (let ((?x1191 (stack ?x1189 ?x862)))
 (let (($x1218 (= ?x1000 ?x1191)))
 (let (($x1201 ((_ is stack ) ?x1048)))
 (let (($x1202 (= c________ center-to-right)))
 (let (($x1203 (and $x1202 $x1201)))
 (let (($x1204 (= c________ center-to-left)))
 (let (($x1205 (and $x1204 $x1201)))
 (let ((?x828 (left s________)))
 (let (($x1206 ((_ is stack ) ?x828)))
 (let (($x1207 (= c________ left-to-right)))
 (let (($x1208 (and $x1207 $x1206)))
 (let (($x1239 (ite $x1208 $x1222 (ite $x1205 $x1222 (ite $x1203 $x1218 (ite $x1200 $x1219 (ite $x1198 $x1219 $x1222)))))))
 (let ((?x1046 (top ?x828)))
 (let ((?x1185 (stack ?x1046 ?x862)))
 (let (($x1214 (= ?x1000 ?x1185)))
 (let (($x1209 (= c________ left-to-center)))
 (let (($x1210 (and $x1209 $x1206)))
 (ite $x1210 $x1214 $x1239)))))))))))))))))))))))))))))))
(assert
 (let ((?x1048 (center s________)))
 (let ((?x1186 (center s_________)))
 (let (($x1224 (= ?x1186 ?x1048)))
 (let ((?x862 (right s________)))
 (let ((?x1193 (top ?x862)))
 (let ((?x1195 (stack ?x1193 ?x1048)))
 (let (($x1221 (= ?x1186 ?x1195)))
 (let (($x1196 ((_ is stack ) ?x862)))
 (let (($x1197 (= c________ right-to-center)))
 (let (($x1198 (and $x1197 $x1196)))
 (let (($x1199 (= c________ right-to-left)))
 (let (($x1200 (and $x1199 $x1196)))
 (let ((?x1188 (rest ?x1048)))
 (let (($x1216 (= ?x1186 ?x1188)))
 (let (($x1201 ((_ is stack ) ?x1048)))
 (let (($x1202 (= c________ center-to-right)))
 (let (($x1203 (and $x1202 $x1201)))
 (let (($x1204 (= c________ center-to-left)))
 (let (($x1205 (and $x1204 $x1201)))
 (let ((?x828 (left s________)))
 (let ((?x1046 (top ?x828)))
 (let ((?x1187 (stack ?x1046 ?x1048)))
 (let (($x1215 (= ?x1186 ?x1187)))
 (let (($x1206 ((_ is stack ) ?x828)))
 (let (($x1207 (= c________ left-to-right)))
 (let (($x1208 (and $x1207 $x1206)))
 (let (($x1238 (ite $x1208 $x1215 (ite $x1205 $x1216 (ite $x1203 $x1216 (ite $x1200 $x1224 (ite $x1198 $x1221 $x1224)))))))
 (let (($x1209 (= c________ left-to-center)))
 (let (($x1210 (and $x1209 $x1206)))
 (ite $x1210 $x1224 $x1238)))))))))))))))))))))))))))))))
(assert
 (= c__________ c!9))
(assert
 (let ((?x966 (left s_________)))
 (let ((?x1104 (left s__________)))
 (let (($x1364 (= ?x1104 ?x966)))
 (let ((?x1000 (right s_________)))
 (let ((?x1331 (top ?x1000)))
 (let ((?x1332 (stack ?x1331 ?x966)))
 (let (($x1358 (= ?x1104 ?x1332)))
 (let (($x1334 ((_ is stack ) ?x1000)))
 (let (($x1337 (= c_________ right-to-left)))
 (let (($x1338 (and $x1337 $x1334)))
 (let ((?x1186 (center s_________)))
 (let (($x1339 ((_ is stack ) ?x1186)))
 (let (($x1340 (= c_________ center-to-right)))
 (let (($x1341 (and $x1340 $x1339)))
 (let ((?x1327 (top ?x1186)))
 (let ((?x1328 (stack ?x1327 ?x966)))
 (let (($x1355 (= ?x1104 ?x1328)))
 (let (($x1342 (= c_________ center-to-left)))
 (let (($x1343 (and $x1342 $x1339)))
 (let ((?x1137 (rest ?x966)))
 (let (($x1351 (= ?x1104 ?x1137)))
 (let (($x1344 ((_ is stack ) ?x966)))
 (let (($x1345 (= c_________ left-to-right)))
 (let (($x1346 (and $x1345 $x1344)))
 (let (($x1347 (= c_________ left-to-center)))
 (let (($x1348 (and $x1347 $x1344)))
 (ite $x1348 $x1351 (ite $x1346 $x1351 (ite $x1343 $x1355 (ite $x1341 $x1364 (ite $x1338 $x1358 $x1364))))))))))))))))))))))))))))))))
(assert
 (let ((?x1000 (right s_________)))
 (let ((?x1138 (right s__________)))
 (let (($x1360 (= ?x1138 ?x1000)))
 (let ((?x1330 (rest ?x1000)))
 (let (($x1357 (= ?x1138 ?x1330)))
 (let (($x1334 ((_ is stack ) ?x1000)))
 (let (($x1335 (= c_________ right-to-center)))
 (let (($x1336 (and $x1335 $x1334)))
 (let (($x1337 (= c_________ right-to-left)))
 (let (($x1338 (and $x1337 $x1334)))
 (let ((?x1186 (center s_________)))
 (let ((?x1327 (top ?x1186)))
 (let ((?x1329 (stack ?x1327 ?x1000)))
 (let (($x1356 (= ?x1138 ?x1329)))
 (let (($x1339 ((_ is stack ) ?x1186)))
 (let (($x1340 (= c_________ center-to-right)))
 (let (($x1341 (and $x1340 $x1339)))
 (let (($x1342 (= c_________ center-to-left)))
 (let (($x1343 (and $x1342 $x1339)))
 (let ((?x966 (left s_________)))
 (let (($x1344 ((_ is stack ) ?x966)))
 (let (($x1345 (= c_________ left-to-right)))
 (let (($x1346 (and $x1345 $x1344)))
 (let (($x1377 (ite $x1346 $x1360 (ite $x1343 $x1360 (ite $x1341 $x1356 (ite $x1338 $x1357 (ite $x1336 $x1357 $x1360)))))))
 (let ((?x1184 (top ?x966)))
 (let ((?x1323 (stack ?x1184 ?x1000)))
 (let (($x1352 (= ?x1138 ?x1323)))
 (let (($x1347 (= c_________ left-to-center)))
 (let (($x1348 (and $x1347 $x1344)))
 (ite $x1348 $x1352 $x1377)))))))))))))))))))))))))))))))
(assert
 (let ((?x1186 (center s_________)))
 (let ((?x1324 (center s__________)))
 (let (($x1362 (= ?x1324 ?x1186)))
 (let ((?x1000 (right s_________)))
 (let ((?x1331 (top ?x1000)))
 (let ((?x1333 (stack ?x1331 ?x1186)))
 (let (($x1359 (= ?x1324 ?x1333)))
 (let (($x1334 ((_ is stack ) ?x1000)))
 (let (($x1335 (= c_________ right-to-center)))
 (let (($x1336 (and $x1335 $x1334)))
 (let (($x1337 (= c_________ right-to-left)))
 (let (($x1338 (and $x1337 $x1334)))
 (let ((?x1326 (rest ?x1186)))
 (let (($x1354 (= ?x1324 ?x1326)))
 (let (($x1339 ((_ is stack ) ?x1186)))
 (let (($x1340 (= c_________ center-to-right)))
 (let (($x1341 (and $x1340 $x1339)))
 (let (($x1342 (= c_________ center-to-left)))
 (let (($x1343 (and $x1342 $x1339)))
 (let ((?x966 (left s_________)))
 (let ((?x1184 (top ?x966)))
 (let ((?x1325 (stack ?x1184 ?x1186)))
 (let (($x1353 (= ?x1324 ?x1325)))
 (let (($x1344 ((_ is stack ) ?x966)))
 (let (($x1345 (= c_________ left-to-right)))
 (let (($x1346 (and $x1345 $x1344)))
 (let (($x1376 (ite $x1346 $x1353 (ite $x1343 $x1354 (ite $x1341 $x1354 (ite $x1338 $x1362 (ite $x1336 $x1359 $x1362)))))))
 (let (($x1347 (= c_________ left-to-center)))
 (let (($x1348 (and $x1347 $x1344)))
 (ite $x1348 $x1362 $x1376)))))))))))))))))))))))))))))))
(assert
 (let ((?x59 (stack I empty)))
 (let ((?x1138 (right s__________)))
 (let (($x1380 (= ?x1138 ?x59)))
 (let ((?x58 (stack G (stack H (stack A (stack D (stack L (stack O empty))))))))
 (let ((?x1324 (center s__________)))
 (let (($x1411 (= ?x1324 ?x58)))
 (let ((?x49 (stack C (stack B (stack K (stack P (stack M (stack J empty))))))))
 (let ((?x52 (stack N (stack F (stack E ?x49)))))
 (let ((?x1104 (left s__________)))
 (let (($x1412 (= ?x1104 ?x52)))
 (let (($x1414 (not (and $x1412 $x1411 $x1380))))
 (not $x1414)))))))))))))
(check-sat)
(exit)
